p tw 220 3301 7 
1 8 
1 51 
2 9 
2 10 
2 52 
3 7 
3 10 
3 81 
4 8 
4 9 
4 82 
5 7 
5 9 
5 191 
6 8 
6 10 
6 192 
11 17 
11 18 
11 141 
12 19 
12 20 
12 142 
13 17 
13 20 
13 161 
14 18 
14 19 
14 162 
15 17 
15 19 
15 201 
16 18 
16 20 
16 202 
21 27 
21 28 
21 61 
22 29 
22 30 
22 62 
23 27 
23 30 
23 71 
24 28 
24 29 
24 72 
25 27 
25 29 
25 131 
26 28 
26 30 
26 132 
31 37 
31 38 
31 83 
32 39 
32 40 
32 84 
33 37 
33 40 
33 111 
34 38 
34 39 
34 112 
35 37 
35 39 
35 151 
36 38 
36 40 
36 152 
41 47 
41 48 
41 101 
42 49 
42 50 
42 102 
43 47 
43 50 
43 133 
44 48 
44 49 
44 134 
45 47 
45 49 
45 211 
46 48 
46 50 
46 212 
51 57 
51 58 
52 59 
52 60 
53 57 
53 60 
53 63 
54 58 
54 59 
54 64 
55 57 
55 59 
55 121 
56 58 
56 60 
56 122 
61 67 
61 68 
62 69 
62 70 
63 67 
63 70 
64 68 
64 69 
65 67 
65 69 
65 163 
66 68 
66 70 
66 164 
71 77 
71 78 
72 79 
72 80 
73 77 
73 80 
73 103 
74 78 
74 79 
74 104 
75 77 
75 79 
75 181 
76 78 
76 80 
76 182 
81 87 
81 88 
82 89 
82 90 
83 87 
83 90 
84 88 
84 89 
85 87 
85 89 
85 143 
86 88 
86 90 
86 144 
91 97 
91 98 
91 123 
92 99 
92 100 
92 124 
93 97 
93 100 
93 145 
94 98 
94 99 
94 146 
95 97 
95 99 
95 203 
96 98 
96 100 
96 204 
101 107 
101 108 
102 109 
102 110 
103 107 
103 110 
104 108 
104 109 
105 107 
105 109 
105 213 
106 108 
106 110 
106 214 
111 117 
111 118 
112 119 
112 120 
113 117 
113 120 
113 153 
114 118 
114 119 
114 154 
115 117 
115 119 
115 171 
116 118 
116 120 
116 172 
121 127 
121 128 
122 129 
122 130 
123 127 
123 130 
124 128 
124 129 
125 127 
125 129 
125 193 
126 128 
126 130 
126 194 
131 137 
131 138 
132 139 
132 140 
133 137 
133 140 
134 138 
134 139 
135 137 
135 139 
135 165 
136 138 
136 140 
136 166 
141 147 
141 148 
142 149 
142 150 
143 147 
143 150 
144 148 
144 149 
145 147 
145 149 
146 148 
146 150 
151 157 
151 158 
152 159 
152 160 
153 157 
153 160 
154 158 
154 159 
155 157 
155 159 
155 183 
156 158 
156 160 
156 184 
161 167 
161 168 
162 169 
162 170 
163 167 
163 170 
164 168 
164 169 
165 167 
165 169 
166 168 
166 170 
171 177 
171 178 
172 179 
172 180 
173 177 
173 180 
173 205 
174 178 
174 179 
174 206 
175 177 
175 179 
175 215 
176 178 
176 180 
176 216 
181 187 
181 188 
182 189 
182 190 
183 187 
183 190 
184 188 
184 189 
185 187 
185 189 
185 195 
186 188 
186 190 
186 196 
191 197 
191 198 
192 199 
192 200 
193 197 
193 200 
194 198 
194 199 
195 197 
195 199 
196 198 
196 200 
201 207 
201 208 
202 209 
202 210 
203 207 
203 210 
204 208 
204 209 
205 207 
205 209 
206 208 
206 210 
211 217 
211 218 
212 219 
212 220 
213 217 
213 220 
214 218 
214 219 
215 217 
215 219 
216 218 
216 220 
